Instance: E076-14s.dat
Class:  1
75 --- number of customers (no depot)
14 --- number of vehicles
75 --- number of items
Capacity - height - width of vehicles
   100     40     20
Node - x - y - demand  Readytime Duetime
  0.00   40.00  40.00   0.00 0       569.00
  1.00   22.00  22.00  18.00   9.00   57.00
  2.00   36.00  26.00  26.00  73.00   98.00
  3.00   21.00  45.00  11.00  42.00   61.00
  4.00   45.00  35.00  30.00 155.00  171.00
  5.00   55.00  20.00  21.00 301.00  320.00
  6.00   33.00  34.00  19.00 300.00  315.00
  7.00   50.00  50.00  15.00 370.00  385.00
  8.00   55.00  45.00  16.00  19.00   57.00
  9.00   26.00  59.00  29.00 221.00  244.00
 10.00   40.00  66.00  26.00 219.00  240.00
 11.00   55.00  65.00  37.00 432.00  453.00
 12.00   35.00  51.00  16.00  36.00   65.00
 13.00   62.00  35.00  12.00  23.00   57.00
 14.00   62.00  57.00  31.00  59.00   84.00
 15.00   62.00  24.00   8.00 219.00  236.00
 16.00   21.00  36.00  19.00 355.00  375.00
 17.00   33.00  44.00  20.00  59.00   81.00
 18.00    9.00  56.00  13.00  39.00   57.00
 19.00   62.00  48.00  15.00 128.00  144.00
 20.00   66.00  14.00  22.00 108.00  136.00
 21.00   44.00  13.00  28.00  90.00  117.00
 22.00   26.00  13.00  12.00 192.00  221.00
 23.00   11.00  28.00   6.00 226.00  254.00
 24.00    7.00  43.00  27.00 413.00  443.00
 25.00   17.00  64.00  14.00 102.00  118.00
 26.00   41.00  46.00  18.00 252.00  270.00
 27.00   55.00  34.00  17.00 124.00  154.00
 28.00   35.00  16.00  29.00 254.00  271.00
 29.00   52.00  26.00  13.00 263.00  279.00
 30.00   43.00  26.00  22.00 116.00  132.00
 31.00   31.00  76.00  25.00 275.00  300.00
 32.00   22.00  53.00  28.00 108.00  128.00
 33.00   26.00  29.00  27.00 243.00  270.00
 34.00   50.00  40.00  19.00 467.00  488.00
 35.00   55.00  50.00  10.00 282.00  302.00
 36.00   54.00  10.00  12.00 101.00  129.00
 37.00   60.00  15.00  14.00 447.00  469.00
 38.00   47.00  66.00  24.00 422.00  451.00
 39.00   30.00  60.00  16.00  89.00  111.00
 40.00   30.00  50.00  33.00 243.00  267.00
 41.00   12.00  17.00  15.00 103.00  119.00
 42.00   15.00  14.00  11.00 182.00  208.00
 43.00   16.00  19.00  18.00 418.00  433.00
 44.00   21.00  48.00  17.00 113.00  143.00
 45.00   50.00  30.00  21.00 199.00  220.00
 46.00   51.00  42.00  27.00 346.00  366.00
 47.00   50.00  15.00  19.00  46.00   69.00
 48.00   48.00  21.00  20.00 430.00  448.00
 49.00   12.00  38.00   5.00 123.00  144.00
 50.00   15.00  56.00  22.00 259.00  284.00
 51.00   29.00  39.00  12.00 259.00  284.00
 52.00   54.00  38.00  19.00 206.00  225.00
 53.00   55.00  57.00  22.00 327.00  350.00
 54.00   67.00  41.00  16.00 441.00  465.00
 55.00   10.00  70.00   7.00 124.00  145.00
 56.00    6.00  25.00  26.00 454.00  473.00
 57.00   65.00  27.00  14.00 184.00  204.00
 58.00   40.00  60.00  21.00 232.00  255.00
 59.00   70.00  64.00  24.00 225.00  253.00
 60.00   64.00   4.00  13.00 293.00  318.00
 61.00   36.00   6.00  15.00  37.00   65.00
 62.00   30.00  20.00  18.00  48.00   63.00
 63.00   20.00  30.00  11.00 187.00  210.00
 64.00   15.00   5.00  28.00 417.00  444.00
 65.00   50.00  70.00   9.00 291.00  310.00
 66.00   57.00  72.00  37.00 250.00  268.00
 67.00   45.00  42.00  30.00 322.00  338.00
 68.00   38.00  33.00  10.00 458.00  475.00
 69.00   50.00   4.00   8.00  12.00   57.00
 70.00   66.00   8.00  11.00  17.00   57.00
 71.00   59.00   5.00   3.00 324.00  352.00
 72.00   35.00  60.00   1.00 375.00  391.00
 73.00   27.00  24.00   6.00 460.00  482.00
 74.00   40.00  20.00  10.00 229.00  247.00
 75.00   40.00  37.00  20.00 426.00  453.00                          
Node - number of items - h - w for each item
    0   0
    1   1    1    1
    2   1    1    1
    3   1    1    1
    4   1    1    1
    5   1    1    1
    6   1    1    1
    7   1    1    1
    8   1    1    1
    9   1    1    1
   10   1    1    1
   11   1    1    1
   12   1    1    1
   13   1    1    1
   14   1    1    1
   15   1    1    1
   16   1    1    1
   17   1    1    1
   18   1    1    1
   19   1    1    1
   20   1    1    1
   21   1    1    1
   22   1    1    1
   23   1    1    1
   24   1    1    1
   25   1    1    1
   26   1    1    1
   27   1    1    1
   28   1    1    1
   29   1    1    1
   30   1    1    1
   31   1    1    1
   32   1    1    1
   33   1    1    1
   34   1    1    1
   35   1    1    1
   36   1    1    1
   37   1    1    1
   38   1    1    1
   39   1    1    1
   40   1    1    1
   41   1    1    1
   42   1    1    1
   43   1    1    1
   44   1    1    1
   45   1    1    1
   46   1    1    1
   47   1    1    1
   48   1    1    1
   49   1    1    1
   50   1    1    1
   51   1    1    1
   52   1    1    1
   53   1    1    1
   54   1    1    1
   55   1    1    1
   56   1    1    1
   57   1    1    1
   58   1    1    1
   59   1    1    1
   60   1    1    1
   61   1    1    1
   62   1    1    1
   63   1    1    1
   64   1    1    1
   65   1    1    1
   66   1    1    1
   67   1    1    1
   68   1    1    1
   69   1    1    1
   70   1    1    1
   71   1    1    1
   72   1    1    1
   73   1    1    1
   74   1    1    1
   75   1    1    1













               
  
